c description: Random 3-CNF over 16 variables and 48 clauses
p cnf 16 48
-2 -5 7 0
-1 -5 -15 0
-1 6 -11 0
4 -6 -12 0
4 8 13 0
1 -4 -9 0
-3 10 -14 0
2 -12 -14 0
3 -8 16 0
4 7 -8 0
-4 -12 -15 0
-8 -9 -15 0
9 -10 -14 0
-1 7 -16 0
7 -13 14 0
5 7 -14 0
7 10 -15 0
-1 7 -13 0
-4 6 -15 0
1 -2 -9 0
1 -4 5 0
-8 -13 -16 0
2 -11 13 0
-3 7 -14 0
3 -7 -11 0
-7 8 11 0
-4 6 14 0
-1 -10 -13 0
-13 14 -16 0
-4 -15 -16 0
-1 5 9 0
-2 -10 -14 0
-1 -12 14 0
1 7 -13 0
-3 -5 11 0
-5 6 -7 0
8 9 15 0
1 -4 13 0
6 -12 16 0
-2 3 -14 0
11 15 -16 0
9 -12 -15 0
-3 -10 -11 0
10 13 15 0
6 7 9 0
2 -9 13 0
4 -11 -13 0
-6 -10 15 0